NAME : custom
COMMENT : Custom points
TYPE : TSP
DIMENSION : 14
EDGE_WEIGHT_TYPE : EUC_2D
NODE_COORD_SECTION
1 19 18
2 19 43
3 46 38
4 39 21
5 33 33
6 29 25
7 21 35
8 24 30
9 28 32
10 32 30
11 34 31
12 32 40
13 44 33
14 42 24
EOF
